p wcnf 124 62 63 
1 -36 -115 0 
1 -7 75 0 
1 98 -78 0 
1 31 -95 0 
1 -113 -86 0 
1 -78 -100 0 
1 -43 67 0 
1 -106 -29 0 
1 15 54 0 
1 -7 51 0 
1 68 87 0 
1 -80 -81 0 
1 -83 42 0 
1 100 40 0 
1 -60 47 0 
1 -23 -106 0 
1 -15 13 0 
1 22 104 0 
1 -61 -112 0 
1 -102 -94 0 
1 2 -32 0 
1 -41 70 0 
1 57 52 0 
1 -103 5 0 
1 73 -2 0 
1 -23 89 0 
1 66 -114 0 
1 33 -25 0 
1 58 -80 0 
1 -108 -81 0 
1 4 71 0 
1 98 37 0 
1 90 -122 0 
1 -34 93 0 
1 -44 124 0 
1 -24 -73 0 
1 4 -70 0 
1 -8 26 0 
1 -55 106 0 
1 85 -32 0 
1 -46 32 0 
1 -91 -111 0 
1 83 -55 0 
1 -77 -88 0 
1 -8 38 0 
1 113 -123 0 
1 119 81 0 
1 -91 16 0 
1 62 -96 0 
1 94 -85 0 
1 -5 -59 0 
1 93 -30 0 
1 -19 35 0 
1 35 -75 0 
1 103 -3 0 
1 -111 -67 0 
1 -119 10 0 
1 63 -24 0 
1 -71 -65 0 
1 -75 110 0 
1 13 -60 0 
1 31 -8 0 
